words_easy_train/words_263_UNSAT.qaiger
aag 81 24 0 1 57
28
34
44
16
30
26
8
40
38
14
6
24
4
10
46
12
32
2
20
22
36
18
48
42
163
50 30 14
52 38 34
54 52 36
56 54 40
58 56 42
60 58 44
62 60 46
64 61 47
66 65 63
68 66 50
70 28 12
72 59 45
74 73 61
76 74 70
78 26 10
80 57 43
82 81 59
84 83 79
86 24 8
88 55 41
90 89 57
92 91 87
94 22 6
96 94 38
98 20 4
100 98 36
102 99 37
104 18 2
106 105 35
108 107 103
110 109 101
112 110 97
114 95 39
116 115 113
118 116 93
120 118 55
122 90 86
124 82 78
126 125 123
128 126 121
130 129 85
132 131 77
134 75 71
136 67 51
138 137 135
140 138 133
142 141 69
144 32 16
146 144 49
148 145 48
150 149 147
152 150 63
154 151 62
156 155 153
158 156 142
160 157 143
162 161 159
i0 1 x2[5]
i1 1 x1[0]
i2 1 x1[5]
i3 2 y2[7]
i4 1 x2[6]
i5 1 x2[4]
i6 2 y2[3]
i7 1 x1[3]
i8 1 x1[2]
i9 2 y2[6]
i10 2 y2[2]
i11 1 x2[3]
i12 2 y2[1]
i13 2 y2[4]
i14 1 x1[6]
i15 2 y2[5]
i16 1 x2[7]
i17 2 y2[0]
i18 1 x2[1]
i19 1 x2[2]
i20 1 x1[1]
i21 1 x2[0]
i22 1 x1[7]
i23 1 x1[4]
o0 bv[0]
c
simplified
  >
    invert
      1 x1
    and
      2 y2
      1 x2
