words_easy_train/words_263_UNSAT.qaiger.qdimacs
p cnf 81 172
a 9 10 11 12 13 14 15 16 17 18 19 20 21 22 23 24 0
e 1 2 3 4 5 6 7 8 25 26 27 28 29 30 31 32 33 34 35 36 37 38 39 40 41 42 43 44 45 46 47 48 49 50 51 52 53 54 55 56 57 58 59 60 61 62 63 64 65 66 67 68 69 70 71 72 73 74 75 76 77 78 79 80 81 0
-15 -7 25 0
15 -25 0
7 -25 0
-19 -17 26 0
19 -26 0
17 -26 0
-26 -18 27 0
26 -27 0
18 -27 0
-27 -20 28 0
27 -28 0
20 -28 0
-28 -21 29 0
28 -29 0
21 -29 0
-29 -22 30 0
29 -30 0
22 -30 0
-30 -23 31 0
30 -31 0
23 -31 0
30 23 32 0
-30 -32 0
-23 -32 0
32 31 33 0
-32 -33 0
-31 -33 0
-33 -25 34 0
33 -34 0
25 -34 0
-14 -6 35 0
14 -35 0
6 -35 0
29 22 36 0
-29 -36 0
-22 -36 0
36 30 37 0
-36 -37 0
-30 -37 0
-37 -35 38 0
37 -38 0
35 -38 0
-13 -5 39 0
13 -39 0
5 -39 0
28 21 40 0
-28 -40 0
-21 -40 0
40 29 41 0
-40 -41 0
-29 -41 0
41 39 42 0
-41 -42 0
-39 -42 0
-12 -4 43 0
12 -43 0
4 -43 0
27 20 44 0
-27 -44 0
-20 -44 0
44 28 45 0
-44 -45 0
-28 -45 0
45 43 46 0
-45 -46 0
-43 -46 0
-11 -3 47 0
11 -47 0
3 -47 0
-47 -19 48 0
47 -48 0
19 -48 0
-10 -2 49 0
10 -49 0
2 -49 0
-49 -18 50 0
49 -50 0
18 -50 0
49 18 51 0
-49 -51 0
-18 -51 0
-9 -1 52 0
9 -52 0
1 -52 0
52 17 53 0
-52 -53 0
-17 -53 0
53 51 54 0
-53 -54 0
-51 -54 0
54 50 55 0
-54 -55 0
-50 -55 0
-55 48 56 0
55 -56 0
-48 -56 0
47 19 57 0
-47 -57 0
-19 -57 0
57 56 58 0
-57 -58 0
-56 -58 0
-58 46 59 0
58 -59 0
-46 -59 0
-59 27 60 0
59 -60 0
-27 -60 0
-45 -43 61 0
45 -61 0
43 -61 0
-41 -39 62 0
41 -62 0
39 -62 0
62 61 63 0
-62 -63 0
-61 -63 0
-63 60 64 0
63 -64 0
-60 -64 0
64 42 65 0
-64 -65 0
-42 -65 0
65 38 66 0
-65 -66 0
-38 -66 0
37 35 67 0
-37 -67 0
-35 -67 0
33 25 68 0
-33 -68 0
-25 -68 0
68 67 69 0
-68 -69 0
-67 -69 0
-69 66 70 0
69 -70 0
-66 -70 0
70 34 71 0
-70 -71 0
-34 -71 0
-16 -8 72 0
16 -72 0
8 -72 0
-72 24 73 0
72 -73 0
-24 -73 0
72 -24 74 0
-72 -74 0
24 -74 0
74 73 75 0
-74 -75 0
-73 -75 0
-75 31 76 0
75 -76 0
-31 -76 0
75 -31 77 0
-75 -77 0
31 -77 0
77 76 78 0
-77 -78 0
-76 -78 0
-78 -71 79 0
78 -79 0
71 -79 0
78 71 80 0
-78 -80 0
-71 -80 0
80 79 81 0
-80 -81 0
-79 -81 0
-81 0
